172	32	4	55	
18	15	13	10

0	0	0	0	0	0	4	1	2	3	4
1	8	0	0	0	5	2	8	10
2	8	0	0	0	6	1	7
3	0	6	0	0	6	1	6
4	10	0	0	0	5	1	5
5	0	0	10	0	2	1	10
6	0	8	0	0	10	1	9
7	0	0	7	0	5	1	17
8	7	0	0	0	9	1	19
9	8	0	0	0	8	1	12
10	10	0	0	0	4	1	11
11	0	4	0	0	9	1	15
12	4	0	0	0	5	1	13
13	0	6	0	0	10	1	14
14	0	0	5	0	2	1	16
15	0	0	8	0	10	1	22
16	8	0	0	0	2	2	18	30
17	0	1	0	0	7	1	20
18	0	10	0	0	5	1	29
19	0	6	0	0	5	1	23
20	0	0	0	2	9	1	21
21	0	0	5	0	9	1	26
22	0	0	1	0	1	1	25
23	0	0	0	6	3	1	24
24	0	0	5	0	2	1	30
25	8	0	0	0	10	1	27
26	0	7	0	0	5	1	28
27	0	0	7	0	4	1	31
28	4	0	0	0	5	1	31
29	0	0	0	10	7	1	31
30	0	0	9	0	2	1	31
31	0	0	0	0	0	0
